============================[ Problem Statistics ]=============================|                                                                             ||  Number of variables:          4242                                         ||  Number of clauses:            9866                                         ||  Parse time:                   0.28 s                                       ||                                                                             |============================[ Search Statistics ]==============================| Conflicts |          ORIGINAL         |          LEARNT          | Progress ||           |    Vars  Clauses Literals |    Limit  Clauses Lit/Cl |          |===============================================================================|       100 |    1591     6071   406362 |     2226      100     53 | 62.501 % |===============================================================================restarts              : 2conflicts             : 156            (365 /sec)decisions             : 328            (0.00 % random) (768 /sec)propagations          : 9971           (23351 /sec)conflict literals     : 10228          (95.37 % deleted)CPU time              : 0.427 sSATISFIABLE